# Objective value = 7
x0,1_5 0
x0,1_7 0
x0,1_18 0
x0,1_20 0
x0,1_21 0
x0,1_24 1
x0,1_29 0
x0,1_39 0
x0,1_44 0
x0,1_45 0
x0,1_50 0
x0,1_64 0
x0,1_66 0
x0,1_71 0
x0,2_5 0
x0,2_7 0
x0,2_18 0
x0,2_20 0
x0,2_21 0
x0,2_24 0
x0,2_29 1
x0,2_39 0
x0,2_44 0
x0,2_45 0
x0,2_50 0
x0,2_64 0
x0,2_66 0
x0,2_71 0
x0,3_5 0
x0,3_7 0
x0,3_18 0
x0,3_20 0
x0,3_21 0
x0,3_24 0
x0,3_29 0
x0,3_39 0
x0,3_44 0
x0,3_45 0
x0,3_50 1
x0,3_64 0
x0,3_66 0
x0,3_71 0
x0,4_5 0
x0,4_7 0
x0,4_18 0
x0,4_20 0
x0,4_21 0
x0,4_24 0
x0,4_29 0
x0,4_39 0
x0,4_44 0
x0,4_45 0
x0,4_50 0
x0,4_64 0
x0,4_66 0
x0,4_71 0
x0,5_5 0
x0,5_7 0
x0,5_18 0
x0,5_20 0
x0,5_21 0
x0,5_24 0
x0,5_29 0
x0,5_39 0
x0,5_44 0
x0,5_45 0
x0,5_50 0
x0,5_64 0
x0,5_66 0
x0,5_71 0
x0,6_5 0
x0,6_7 0
x0,6_18 0
x0,6_20 0
x0,6_21 0
x0,6_24 0
x0,6_29 0
x0,6_39 0
x0,6_44 0
x0,6_45 0
x0,6_50 0
x0,6_64 0
x0,6_66 0
x0,6_71 0
x0,7_5 0
x0,7_7 0
x0,7_18 0
x0,7_20 0
x0,7_21 0
x0,7_24 0
x0,7_29 0
x0,7_39 0
x0,7_44 0
x0,7_45 0
x0,7_50 0
x0,7_64 0
x0,7_66 0
x0,7_71 0
x0,8_5 0
x0,8_7 0
x0,8_18 0
x0,8_20 0
x0,8_21 0
x0,8_24 0
x0,8_29 0
x0,8_39 0
x0,8_44 0
x0,8_45 0
x0,8_50 0
x0,8_64 0
x0,8_66 0
x0,8_71 0
x0,9_5 0
x0,9_7 0
x0,9_18 0
x0,9_20 0
x0,9_21 0
x0,9_24 0
x0,9_29 0
x0,9_39 0
x0,9_44 0
x0,9_45 0
x0,9_50 0
x0,9_64 0
x0,9_66 0
x0,9_71 0
x0,10_5 0
x0,10_7 0
x0,10_18 0
x0,10_20 0
x0,10_21 0
x0,10_24 0
x0,10_29 0
x0,10_39 0
x0,10_44 0
x0,10_45 0
x0,10_50 0
x0,10_64 0
x0,10_66 0
x0,10_71 0
x0,11_5 0
x0,11_7 0
x0,11_18 0
x0,11_20 0
x0,11_21 0
x0,11_24 0
x0,11_29 0
x0,11_39 0
x0,11_44 0
x0,11_45 0
x0,11_50 0
x0,11_64 0
x0,11_66 0
x0,11_71 0
x0,12_5 0
x0,12_7 0
x0,12_18 0
x0,12_20 0
x0,12_21 0
x0,12_24 0
x0,12_29 0
x0,12_39 0
x0,12_44 0
x0,12_45 0
x0,12_50 0
x0,12_64 0
x0,12_66 0
x0,12_71 0
x0,13_5 0
x0,13_7 0
x0,13_18 0
x0,13_20 0
x0,13_21 0
x0,13_24 0
x0,13_29 0
x0,13_39 0
x0,13_44 0
x0,13_45 0
x0,13_50 0
x0,13_64 0
x0,13_66 0
x0,13_71 0
x0,14_5 0
x0,14_7 0
x0,14_18 0
x0,14_20 0
x0,14_21 0
x0,14_24 0
x0,14_29 0
x0,14_39 0
x0,14_44 0
x0,14_45 0
x0,14_50 0
x0,14_64 0
x0,14_66 0
x0,14_71 0
x1,2_5 1
x1,2_7 0
x1,2_18 0
x1,2_20 0
x1,2_21 0
x1,2_24 0
x1,2_29 0
x1,2_39 0
x1,2_44 0
x1,2_45 0
x1,2_50 0
x1,2_64 0
x1,2_66 0
x1,2_71 0
x1,3_5 0
x1,3_7 0
x1,3_18 0
x1,3_20 0
x1,3_21 0
x1,3_24 0
x1,3_29 0
x1,3_39 0
x1,3_44 0
x1,3_45 0
x1,3_50 0
x1,3_64 0
x1,3_66 0
x1,3_71 0
x1,4_5 0
x1,4_7 0
x1,4_18 0
x1,4_20 0
x1,4_21 0
x1,4_24 0
x1,4_29 0
x1,4_39 0
x1,4_44 1
x1,4_45 0
x1,4_50 0
x1,4_64 0
x1,4_66 0
x1,4_71 0
x1,5_5 0
x1,5_7 0
x1,5_18 0
x1,5_20 0
x1,5_21 0
x1,5_24 0
x1,5_29 0
x1,5_39 0
x1,5_44 0
x1,5_45 0
x1,5_50 0
x1,5_64 1
x1,5_66 0
x1,5_71 0
x1,6_5 0
x1,6_7 0
x1,6_18 0
x1,6_20 0
x1,6_21 0
x1,6_24 0
x1,6_29 0
x1,6_39 0
x1,6_44 0
x1,6_45 0
x1,6_50 0
x1,6_64 0
x1,6_66 0
x1,6_71 1
x1,7_5 0
x1,7_7 0
x1,7_18 0
x1,7_20 0
x1,7_21 0
x1,7_24 0
x1,7_29 0
x1,7_39 0
x1,7_44 0
x1,7_45 0
x1,7_50 0
x1,7_64 0
x1,7_66 0
x1,7_71 0
x1,8_5 0
x1,8_7 0
x1,8_18 0
x1,8_20 0
x1,8_21 0
x1,8_24 0
x1,8_29 0
x1,8_39 0
x1,8_44 0
x1,8_45 0
x1,8_50 0
x1,8_64 0
x1,8_66 0
x1,8_71 0
x1,9_5 0
x1,9_7 0
x1,9_18 0
x1,9_20 0
x1,9_21 0
x1,9_24 0
x1,9_29 0
x1,9_39 0
x1,9_44 0
x1,9_45 0
x1,9_50 0
x1,9_64 0
x1,9_66 0
x1,9_71 0
x1,10_5 0
x1,10_7 0
x1,10_18 0
x1,10_20 0
x1,10_21 0
x1,10_24 0
x1,10_29 0
x1,10_39 0
x1,10_44 0
x1,10_45 0
x1,10_50 0
x1,10_64 0
x1,10_66 0
x1,10_71 0
x1,11_5 0
x1,11_7 0
x1,11_18 0
x1,11_20 0
x1,11_21 0
x1,11_24 0
x1,11_29 0
x1,11_39 0
x1,11_44 0
x1,11_45 0
x1,11_50 0
x1,11_64 0
x1,11_66 0
x1,11_71 0
x1,12_5 0
x1,12_7 0
x1,12_18 0
x1,12_20 0
x1,12_21 0
x1,12_24 0
x1,12_29 0
x1,12_39 0
x1,12_44 0
x1,12_45 0
x1,12_50 0
x1,12_64 0
x1,12_66 0
x1,12_71 0
x1,13_5 0
x1,13_7 0
x1,13_18 0
x1,13_20 0
x1,13_21 0
x1,13_24 0
x1,13_29 0
x1,13_39 0
x1,13_44 0
x1,13_45 0
x1,13_50 0
x1,13_64 0
x1,13_66 0
x1,13_71 0
x1,14_5 0
x1,14_7 0
x1,14_18 0
x1,14_20 0
x1,14_21 0
x1,14_24 0
x1,14_29 0
x1,14_39 0
x1,14_44 0
x1,14_45 0
x1,14_50 0
x1,14_64 0
x1,14_66 0
x1,14_71 0
x2,3_5 0
x2,3_7 0
x2,3_18 0
x2,3_20 0
x2,3_21 1
x2,3_24 0
x2,3_29 0
x2,3_39 0
x2,3_44 0
x2,3_45 0
x2,3_50 0
x2,3_64 0
x2,3_66 0
x2,3_71 0
x2,4_5 0
x2,4_7 0
x2,4_18 0
x2,4_20 0
x2,4_21 0
x2,4_24 0
x2,4_29 0
x2,4_39 1
x2,4_44 0
x2,4_45 0
x2,4_50 0
x2,4_64 0
x2,4_66 0
x2,4_71 0
x2,5_5 0
x2,5_7 0
x2,5_18 0
x2,5_20 0
x2,5_21 0
x2,5_24 0
x2,5_29 0
x2,5_39 0
x2,5_44 0
x2,5_45 0
x2,5_50 0
x2,5_64 0
x2,5_66 0
x2,5_71 0
x2,6_5 0
x2,6_7 0
x2,6_18 0
x2,6_20 0
x2,6_21 0
x2,6_24 0
x2,6_29 0
x2,6_39 0
x2,6_44 0
x2,6_45 0
x2,6_50 0
x2,6_64 0
x2,6_66 1
x2,6_71 0
x2,7_5 0
x2,7_7 0
x2,7_18 0
x2,7_20 0
x2,7_21 0
x2,7_24 0
x2,7_29 0
x2,7_39 0
x2,7_44 0
x2,7_45 0
x2,7_50 0
x2,7_64 0
x2,7_66 0
x2,7_71 0
x2,8_5 0
x2,8_7 0
x2,8_18 0
x2,8_20 0
x2,8_21 0
x2,8_24 0
x2,8_29 0
x2,8_39 0
x2,8_44 0
x2,8_45 0
x2,8_50 0
x2,8_64 0
x2,8_66 0
x2,8_71 0
x2,9_5 0
x2,9_7 0
x2,9_18 0
x2,9_20 0
x2,9_21 0
x2,9_24 0
x2,9_29 0
x2,9_39 0
x2,9_44 0
x2,9_45 0
x2,9_50 0
x2,9_64 0
x2,9_66 0
x2,9_71 0
x2,10_5 0
x2,10_7 0
x2,10_18 0
x2,10_20 0
x2,10_21 0
x2,10_24 0
x2,10_29 0
x2,10_39 0
x2,10_44 0
x2,10_45 0
x2,10_50 0
x2,10_64 0
x2,10_66 0
x2,10_71 0
x2,11_5 0
x2,11_7 0
x2,11_18 0
x2,11_20 0
x2,11_21 0
x2,11_24 0
x2,11_29 0
x2,11_39 0
x2,11_44 0
x2,11_45 0
x2,11_50 0
x2,11_64 0
x2,11_66 0
x2,11_71 0
x2,12_5 0
x2,12_7 0
x2,12_18 0
x2,12_20 0
x2,12_21 0
x2,12_24 0
x2,12_29 0
x2,12_39 0
x2,12_44 0
x2,12_45 0
x2,12_50 0
x2,12_64 0
x2,12_66 0
x2,12_71 0
x2,13_5 0
x2,13_7 0
x2,13_18 0
x2,13_20 0
x2,13_21 0
x2,13_24 0
x2,13_29 0
x2,13_39 0
x2,13_44 0
x2,13_45 0
x2,13_50 0
x2,13_64 0
x2,13_66 0
x2,13_71 0
x2,14_5 0
x2,14_7 0
x2,14_18 0
x2,14_20 0
x2,14_21 0
x2,14_24 0
x2,14_29 0
x2,14_39 0
x2,14_44 0
x2,14_45 0
x2,14_50 0
x2,14_64 0
x2,14_66 0
x2,14_71 0
x3,4_5 0
x3,4_7 0
x3,4_18 1
x3,4_20 0
x3,4_21 0
x3,4_24 0
x3,4_29 0
x3,4_39 0
x3,4_44 0
x3,4_45 0
x3,4_50 0
x3,4_64 0
x3,4_66 0
x3,4_71 0
x3,5_5 0
x3,5_7 0
x3,5_18 0
x3,5_20 0
x3,5_21 0
x3,5_24 0
x3,5_29 0
x3,5_39 0
x3,5_44 0
x3,5_45 0
x3,5_50 0
x3,5_64 0
x3,5_66 0
x3,5_71 0
x3,6_5 0
x3,6_7 0
x3,6_18 0
x3,6_20 0
x3,6_21 0
x3,6_24 0
x3,6_29 0
x3,6_39 0
x3,6_44 0
x3,6_45 1
x3,6_50 0
x3,6_64 0
x3,6_66 0
x3,6_71 0
x3,7_5 0
x3,7_7 0
x3,7_18 0
x3,7_20 0
x3,7_21 0
x3,7_24 0
x3,7_29 0
x3,7_39 0
x3,7_44 0
x3,7_45 0
x3,7_50 0
x3,7_64 0
x3,7_66 0
x3,7_71 0
x3,8_5 0
x3,8_7 0
x3,8_18 0
x3,8_20 0
x3,8_21 0
x3,8_24 0
x3,8_29 0
x3,8_39 0
x3,8_44 0
x3,8_45 0
x3,8_50 0
x3,8_64 0
x3,8_66 0
x3,8_71 0
x3,9_5 0
x3,9_7 0
x3,9_18 0
x3,9_20 0
x3,9_21 0
x3,9_24 0
x3,9_29 0
x3,9_39 0
x3,9_44 0
x3,9_45 0
x3,9_50 0
x3,9_64 0
x3,9_66 0
x3,9_71 0
x3,10_5 0
x3,10_7 0
x3,10_18 0
x3,10_20 0
x3,10_21 0
x3,10_24 0
x3,10_29 0
x3,10_39 0
x3,10_44 0
x3,10_45 0
x3,10_50 0
x3,10_64 0
x3,10_66 0
x3,10_71 0
x3,11_5 0
x3,11_7 0
x3,11_18 0
x3,11_20 0
x3,11_21 0
x3,11_24 0
x3,11_29 0
x3,11_39 0
x3,11_44 0
x3,11_45 0
x3,11_50 0
x3,11_64 0
x3,11_66 0
x3,11_71 0
x3,12_5 0
x3,12_7 0
x3,12_18 0
x3,12_20 0
x3,12_21 0
x3,12_24 0
x3,12_29 0
x3,12_39 0
x3,12_44 0
x3,12_45 0
x3,12_50 0
x3,12_64 0
x3,12_66 0
x3,12_71 0
x3,13_5 0
x3,13_7 0
x3,13_18 0
x3,13_20 0
x3,13_21 0
x3,13_24 0
x3,13_29 0
x3,13_39 0
x3,13_44 0
x3,13_45 0
x3,13_50 0
x3,13_64 0
x3,13_66 0
x3,13_71 0
x3,14_5 0
x3,14_7 0
x3,14_18 0
x3,14_20 0
x3,14_21 0
x3,14_24 0
x3,14_29 0
x3,14_39 0
x3,14_44 0
x3,14_45 0
x3,14_50 0
x3,14_64 0
x3,14_66 0
x3,14_71 0
x4,5_5 0
x4,5_7 0
x4,5_18 0
x4,5_20 1
x4,5_21 0
x4,5_24 0
x4,5_29 0
x4,5_39 0
x4,5_44 0
x4,5_45 0
x4,5_50 0
x4,5_64 0
x4,5_66 0
x4,5_71 0
x4,6_5 0
x4,6_7 0
x4,6_18 0
x4,6_20 0
x4,6_21 0
x4,6_24 0
x4,6_29 0
x4,6_39 0
x4,6_44 0
x4,6_45 0
x4,6_50 0
x4,6_64 0
x4,6_66 0
x4,6_71 0
x4,7_5 0
x4,7_7 0
x4,7_18 0
x4,7_20 0
x4,7_21 0
x4,7_24 0
x4,7_29 0
x4,7_39 0
x4,7_44 0
x4,7_45 0
x4,7_50 0
x4,7_64 0
x4,7_66 0
x4,7_71 0
x4,8_5 0
x4,8_7 0
x4,8_18 0
x4,8_20 0
x4,8_21 0
x4,8_24 0
x4,8_29 0
x4,8_39 0
x4,8_44 0
x4,8_45 0
x4,8_50 0
x4,8_64 0
x4,8_66 0
x4,8_71 0
x4,9_5 0
x4,9_7 0
x4,9_18 0
x4,9_20 0
x4,9_21 0
x4,9_24 0
x4,9_29 0
x4,9_39 0
x4,9_44 0
x4,9_45 0
x4,9_50 0
x4,9_64 0
x4,9_66 0
x4,9_71 0
x4,10_5 0
x4,10_7 0
x4,10_18 0
x4,10_20 0
x4,10_21 0
x4,10_24 0
x4,10_29 0
x4,10_39 0
x4,10_44 0
x4,10_45 0
x4,10_50 0
x4,10_64 0
x4,10_66 0
x4,10_71 0
x4,11_5 0
x4,11_7 0
x4,11_18 0
x4,11_20 0
x4,11_21 0
x4,11_24 0
x4,11_29 0
x4,11_39 0
x4,11_44 0
x4,11_45 0
x4,11_50 0
x4,11_64 0
x4,11_66 0
x4,11_71 0
x4,12_5 0
x4,12_7 0
x4,12_18 0
x4,12_20 0
x4,12_21 0
x4,12_24 0
x4,12_29 0
x4,12_39 0
x4,12_44 0
x4,12_45 0
x4,12_50 0
x4,12_64 0
x4,12_66 0
x4,12_71 0
x4,13_5 0
x4,13_7 0
x4,13_18 0
x4,13_20 0
x4,13_21 0
x4,13_24 0
x4,13_29 0
x4,13_39 0
x4,13_44 0
x4,13_45 0
x4,13_50 0
x4,13_64 0
x4,13_66 0
x4,13_71 0
x4,14_5 0
x4,14_7 0
x4,14_18 0
x4,14_20 0
x4,14_21 0
x4,14_24 0
x4,14_29 0
x4,14_39 0
x4,14_44 0
x4,14_45 0
x4,14_50 0
x4,14_64 0
x4,14_66 0
x4,14_71 0
x5,6_5 0
x5,6_7 1
x5,6_18 0
x5,6_20 0
x5,6_21 0
x5,6_24 0
x5,6_29 0
x5,6_39 0
x5,6_44 0
x5,6_45 0
x5,6_50 0
x5,6_64 0
x5,6_66 0
x5,6_71 0
x5,7_5 0
x5,7_7 0
x5,7_18 0
x5,7_20 0
x5,7_21 0
x5,7_24 0
x5,7_29 0
x5,7_39 0
x5,7_44 0
x5,7_45 0
x5,7_50 0
x5,7_64 0
x5,7_66 0
x5,7_71 0
x5,8_5 0
x5,8_7 0
x5,8_18 0
x5,8_20 0
x5,8_21 0
x5,8_24 0
x5,8_29 0
x5,8_39 0
x5,8_44 0
x5,8_45 0
x5,8_50 0
x5,8_64 0
x5,8_66 0
x5,8_71 0
x5,9_5 0
x5,9_7 0
x5,9_18 0
x5,9_20 0
x5,9_21 0
x5,9_24 0
x5,9_29 0
x5,9_39 0
x5,9_44 0
x5,9_45 0
x5,9_50 0
x5,9_64 0
x5,9_66 0
x5,9_71 0
x5,10_5 0
x5,10_7 0
x5,10_18 0
x5,10_20 0
x5,10_21 0
x5,10_24 0
x5,10_29 0
x5,10_39 0
x5,10_44 0
x5,10_45 0
x5,10_50 0
x5,10_64 0
x5,10_66 0
x5,10_71 0
x5,11_5 0
x5,11_7 0
x5,11_18 0
x5,11_20 0
x5,11_21 0
x5,11_24 0
x5,11_29 0
x5,11_39 0
x5,11_44 0
x5,11_45 0
x5,11_50 0
x5,11_64 0
x5,11_66 0
x5,11_71 0
x5,12_5 0
x5,12_7 0
x5,12_18 0
x5,12_20 0
x5,12_21 0
x5,12_24 0
x5,12_29 0
x5,12_39 0
x5,12_44 0
x5,12_45 0
x5,12_50 0
x5,12_64 0
x5,12_66 0
x5,12_71 0
x5,13_5 0
x5,13_7 0
x5,13_18 0
x5,13_20 0
x5,13_21 0
x5,13_24 0
x5,13_29 0
x5,13_39 0
x5,13_44 0
x5,13_45 0
x5,13_50 0
x5,13_64 0
x5,13_66 0
x5,13_71 0
x5,14_5 0
x5,14_7 0
x5,14_18 0
x5,14_20 0
x5,14_21 0
x5,14_24 0
x5,14_29 0
x5,14_39 0
x5,14_44 0
x5,14_45 0
x5,14_50 0
x5,14_64 0
x5,14_66 0
x5,14_71 0
x6,7_5 0
x6,7_7 0
x6,7_18 0
x6,7_20 0
x6,7_21 0
x6,7_24 0
x6,7_29 0
x6,7_39 0
x6,7_44 0
x6,7_45 0
x6,7_50 0
x6,7_64 0
x6,7_66 0
x6,7_71 0
x6,8_5 0
x6,8_7 0
x6,8_18 0
x6,8_20 0
x6,8_21 0
x6,8_24 0
x6,8_29 0
x6,8_39 0
x6,8_44 0
x6,8_45 0
x6,8_50 0
x6,8_64 0
x6,8_66 0
x6,8_71 0
x6,9_5 0
x6,9_7 0
x6,9_18 0
x6,9_20 0
x6,9_21 0
x6,9_24 0
x6,9_29 0
x6,9_39 0
x6,9_44 0
x6,9_45 0
x6,9_50 0
x6,9_64 0
x6,9_66 0
x6,9_71 0
x6,10_5 0
x6,10_7 0
x6,10_18 0
x6,10_20 0
x6,10_21 0
x6,10_24 0
x6,10_29 0
x6,10_39 0
x6,10_44 0
x6,10_45 0
x6,10_50 0
x6,10_64 0
x6,10_66 0
x6,10_71 0
x6,11_5 0
x6,11_7 0
x6,11_18 0
x6,11_20 0
x6,11_21 0
x6,11_24 0
x6,11_29 0
x6,11_39 0
x6,11_44 0
x6,11_45 0
x6,11_50 0
x6,11_64 0
x6,11_66 0
x6,11_71 0
x6,12_5 0
x6,12_7 0
x6,12_18 0
x6,12_20 0
x6,12_21 0
x6,12_24 0
x6,12_29 0
x6,12_39 0
x6,12_44 0
x6,12_45 0
x6,12_50 0
x6,12_64 0
x6,12_66 0
x6,12_71 0
x6,13_5 0
x6,13_7 0
x6,13_18 0
x6,13_20 0
x6,13_21 0
x6,13_24 0
x6,13_29 0
x6,13_39 0
x6,13_44 0
x6,13_45 0
x6,13_50 0
x6,13_64 0
x6,13_66 0
x6,13_71 0
x6,14_5 0
x6,14_7 0
x6,14_18 0
x6,14_20 0
x6,14_21 0
x6,14_24 0
x6,14_29 0
x6,14_39 0
x6,14_44 0
x6,14_45 0
x6,14_50 0
x6,14_64 0
x6,14_66 0
x6,14_71 0
x7,8_5 0
x7,8_7 0
x7,8_18 0
x7,8_20 0
x7,8_21 0
x7,8_24 0
x7,8_29 0
x7,8_39 0
x7,8_44 0
x7,8_45 0
x7,8_50 0
x7,8_64 0
x7,8_66 0
x7,8_71 0
x7,9_5 0
x7,9_7 0
x7,9_18 0
x7,9_20 0
x7,9_21 0
x7,9_24 0
x7,9_29 0
x7,9_39 0
x7,9_44 0
x7,9_45 0
x7,9_50 0
x7,9_64 0
x7,9_66 0
x7,9_71 0
x7,10_5 0
x7,10_7 0
x7,10_18 0
x7,10_20 0
x7,10_21 0
x7,10_24 0
x7,10_29 0
x7,10_39 0
x7,10_44 0
x7,10_45 0
x7,10_50 0
x7,10_64 0
x7,10_66 0
x7,10_71 0
x7,11_5 0
x7,11_7 0
x7,11_18 0
x7,11_20 0
x7,11_21 0
x7,11_24 0
x7,11_29 0
x7,11_39 0
x7,11_44 0
x7,11_45 0
x7,11_50 0
x7,11_64 0
x7,11_66 0
x7,11_71 0
x7,12_5 0
x7,12_7 0
x7,12_18 0
x7,12_20 0
x7,12_21 0
x7,12_24 0
x7,12_29 0
x7,12_39 0
x7,12_44 0
x7,12_45 0
x7,12_50 0
x7,12_64 0
x7,12_66 0
x7,12_71 0
x7,13_5 0
x7,13_7 0
x7,13_18 0
x7,13_20 0
x7,13_21 0
x7,13_24 0
x7,13_29 0
x7,13_39 0
x7,13_44 0
x7,13_45 0
x7,13_50 0
x7,13_64 0
x7,13_66 0
x7,13_71 0
x7,14_5 0
x7,14_7 0
x7,14_18 0
x7,14_20 0
x7,14_21 0
x7,14_24 0
x7,14_29 0
x7,14_39 0
x7,14_44 0
x7,14_45 0
x7,14_50 0
x7,14_64 0
x7,14_66 0
x7,14_71 0
x8,9_5 0
x8,9_7 0
x8,9_18 0
x8,9_20 0
x8,9_21 0
x8,9_24 0
x8,9_29 0
x8,9_39 0
x8,9_44 0
x8,9_45 0
x8,9_50 0
x8,9_64 0
x8,9_66 0
x8,9_71 0
x8,10_5 0
x8,10_7 0
x8,10_18 0
x8,10_20 0
x8,10_21 0
x8,10_24 0
x8,10_29 0
x8,10_39 0
x8,10_44 0
x8,10_45 0
x8,10_50 0
x8,10_64 0
x8,10_66 0
x8,10_71 0
x8,11_5 0
x8,11_7 0
x8,11_18 0
x8,11_20 0
x8,11_21 0
x8,11_24 0
x8,11_29 0
x8,11_39 0
x8,11_44 0
x8,11_45 0
x8,11_50 0
x8,11_64 0
x8,11_66 0
x8,11_71 0
x8,12_5 0
x8,12_7 0
x8,12_18 0
x8,12_20 0
x8,12_21 0
x8,12_24 0
x8,12_29 0
x8,12_39 0
x8,12_44 0
x8,12_45 0
x8,12_50 0
x8,12_64 0
x8,12_66 0
x8,12_71 0
x8,13_5 0
x8,13_7 0
x8,13_18 0
x8,13_20 0
x8,13_21 0
x8,13_24 0
x8,13_29 0
x8,13_39 0
x8,13_44 0
x8,13_45 0
x8,13_50 0
x8,13_64 0
x8,13_66 0
x8,13_71 0
x8,14_5 0
x8,14_7 0
x8,14_18 0
x8,14_20 0
x8,14_21 0
x8,14_24 0
x8,14_29 0
x8,14_39 0
x8,14_44 0
x8,14_45 0
x8,14_50 0
x8,14_64 0
x8,14_66 0
x8,14_71 0
x9,10_5 0
x9,10_7 0
x9,10_18 0
x9,10_20 0
x9,10_21 0
x9,10_24 0
x9,10_29 0
x9,10_39 0
x9,10_44 0
x9,10_45 0
x9,10_50 0
x9,10_64 0
x9,10_66 0
x9,10_71 0
x9,11_5 0
x9,11_7 0
x9,11_18 0
x9,11_20 0
x9,11_21 0
x9,11_24 0
x9,11_29 0
x9,11_39 0
x9,11_44 0
x9,11_45 0
x9,11_50 0
x9,11_64 0
x9,11_66 0
x9,11_71 0
x9,12_5 0
x9,12_7 0
x9,12_18 0
x9,12_20 0
x9,12_21 0
x9,12_24 0
x9,12_29 0
x9,12_39 0
x9,12_44 0
x9,12_45 0
x9,12_50 0
x9,12_64 0
x9,12_66 0
x9,12_71 0
x9,13_5 0
x9,13_7 0
x9,13_18 0
x9,13_20 0
x9,13_21 0
x9,13_24 0
x9,13_29 0
x9,13_39 0
x9,13_44 0
x9,13_45 0
x9,13_50 0
x9,13_64 0
x9,13_66 0
x9,13_71 0
x9,14_5 0
x9,14_7 0
x9,14_18 0
x9,14_20 0
x9,14_21 0
x9,14_24 0
x9,14_29 0
x9,14_39 0
x9,14_44 0
x9,14_45 0
x9,14_50 0
x9,14_64 0
x9,14_66 0
x9,14_71 0
x10,11_5 0
x10,11_7 0
x10,11_18 0
x10,11_20 0
x10,11_21 0
x10,11_24 0
x10,11_29 0
x10,11_39 0
x10,11_44 0
x10,11_45 0
x10,11_50 0
x10,11_64 0
x10,11_66 0
x10,11_71 0
x10,12_5 0
x10,12_7 0
x10,12_18 0
x10,12_20 0
x10,12_21 0
x10,12_24 0
x10,12_29 0
x10,12_39 0
x10,12_44 0
x10,12_45 0
x10,12_50 0
x10,12_64 0
x10,12_66 0
x10,12_71 0
x10,13_5 0
x10,13_7 0
x10,13_18 0
x10,13_20 0
x10,13_21 0
x10,13_24 0
x10,13_29 0
x10,13_39 0
x10,13_44 0
x10,13_45 0
x10,13_50 0
x10,13_64 0
x10,13_66 0
x10,13_71 0
x10,14_5 0
x10,14_7 0
x10,14_18 0
x10,14_20 0
x10,14_21 0
x10,14_24 0
x10,14_29 0
x10,14_39 0
x10,14_44 0
x10,14_45 0
x10,14_50 0
x10,14_64 0
x10,14_66 0
x10,14_71 0
x11,12_5 0
x11,12_7 0
x11,12_18 0
x11,12_20 0
x11,12_21 0
x11,12_24 0
x11,12_29 0
x11,12_39 0
x11,12_44 0
x11,12_45 0
x11,12_50 0
x11,12_64 0
x11,12_66 0
x11,12_71 0
x11,13_5 0
x11,13_7 0
x11,13_18 0
x11,13_20 0
x11,13_21 0
x11,13_24 0
x11,13_29 0
x11,13_39 0
x11,13_44 0
x11,13_45 0
x11,13_50 0
x11,13_64 0
x11,13_66 0
x11,13_71 0
x11,14_5 0
x11,14_7 0
x11,14_18 0
x11,14_20 0
x11,14_21 0
x11,14_24 0
x11,14_29 0
x11,14_39 0
x11,14_44 0
x11,14_45 0
x11,14_50 0
x11,14_64 0
x11,14_66 0
x11,14_71 0
x12,13_5 0
x12,13_7 0
x12,13_18 0
x12,13_20 0
x12,13_21 0
x12,13_24 0
x12,13_29 0
x12,13_39 0
x12,13_44 0
x12,13_45 0
x12,13_50 0
x12,13_64 0
x12,13_66 0
x12,13_71 0
x12,14_5 0
x12,14_7 0
x12,14_18 0
x12,14_20 0
x12,14_21 0
x12,14_24 0
x12,14_29 0
x12,14_39 0
x12,14_44 0
x12,14_45 0
x12,14_50 0
x12,14_64 0
x12,14_66 0
x12,14_71 0
x13,14_5 0
x13,14_7 0
x13,14_18 0
x13,14_20 0
x13,14_21 0
x13,14_24 0
x13,14_29 0
x13,14_39 0
x13,14_44 0
x13,14_45 0
x13,14_50 0
x13,14_64 0
x13,14_66 0
x13,14_71 0
z0 1
z1 1
z2 1
z3 1
z4 1
z5 1
z6 1
z7 0
z8 0
z9 0
z10 0
z11 0
z12 0
z13 0
z14 0
p0 47
p1 71
p2 76
p3 97
p4 115
p5 135
p6 142
p7 147
p8 148
p9 149
p10 150
p11 151
p12 152
p13 153
p14 154
